units           real
neigh_modify    delay 0 every 1 check yes
atom_style      full

boundary        s s s

atom_modify	sort 0 0

read_data       lammps.data

timestep        1.0

dump            1 all custom 1 dump.lammpstrj id element xu yu zu
dump            2 all custom 1 dump.force id element fx fy fz
dump            3 all xyz 1 dump.xyz
dump_modify     1 element O H
dump_modify     2 element O H

thermo_style    multi
thermo          1

#fix             1 all nvt temp 1.0 300.0 70.0
fix             1 all nvt temp 1.0 10.0 1.0
fix             2 all mdi/qm
fix_modify      2 energy yes virial yes

run 10
